96 97 60 62 100 25 16 21 128 106 123 131 126 119 197 115 158 120 54 179 9 79 71 80 11 147 42 88 155 19 99 182 73 15 137 149 22 6 41 195 61 118 2 92 12 36 35 39 85 173 29 44 59 51 8 18 178 121 24 72 193 64 167 63 184 170 81 145 133 109 47 13 139 66 146 37 94 53 135 78 82 134 181 166 138 58 194 154 68 185 142 169 175 157 124 116 140 26 114 65 32 101 102 143 161 30 165 177 83 28 40 87 48 171 186 153 46 98 162 52 33 90 34 192 45 172 69 50 107 117 144 196 150 4 57 174 55 7 168 110 103 130 112 127 113 76 23 191 75 0 49 84 148 20 67 86 38 151 159 122 183 152 136 89 31 43 176 198 187 17 141 3 77 164 180 56 95 111 74 163 132 10 190 199 70 14 105 125 160 93 129 156 1 5 189 104 91 108 27 188 

